VER
4

OBJSENSE
MIN

VAR
626 1
F 626

CON
1879 3
HVECQRE 1251
HVECPSD 625
L= 3

OBJACOORD
1
0 1.0

ACOORD
1481
0 0 1.0
1 1 1.0
2 2 1.0
3 3 1.0
4 4 1.0
5 5 1.0
6 6 1.0
7 7 1.0
8 8 1.0
9 9 1.0
10 10 1.0
11 11 1.0
12 12 1.0
13 13 1.0
14 14 1.0
15 15 1.0
16 16 1.0
17 17 1.0
18 18 1.0
19 19 1.0
20 20 1.0
21 21 1.0
22 22 1.0
23 23 1.0
24 24 1.0
25 25 1.0
26 26 1.0
27 27 1.0
28 28 1.0
29 29 1.0
30 30 1.0
31 31 1.0
32 32 1.0
33 33 1.0
34 34 1.0
35 35 1.0
36 36 1.0
37 37 1.0
38 38 1.0
39 39 1.0
40 40 1.0
41 41 1.0
42 42 1.0
43 43 1.0
44 44 1.0
45 45 1.0
46 46 1.0
47 47 1.0
48 48 1.0
49 49 1.0
50 50 1.0
51 51 1.0
52 52 1.0
53 53 1.0
54 54 1.0
55 55 1.0
56 56 1.0
57 57 1.0
58 58 1.0
59 59 1.0
60 60 1.0
61 61 1.0
62 62 1.0
63 63 1.0
64 64 1.0
65 65 1.0
66 66 1.0
67 67 1.0
68 68 1.0
69 69 1.0
70 70 1.0
71 71 1.0
72 72 1.0
73 73 1.0
74 74 1.0
75 75 1.0
76 76 1.0
77 77 1.0
78 78 1.0
79 79 1.0
80 80 1.0
81 81 1.0
82 82 1.0
83 83 1.0
84 84 1.0
85 85 1.0
86 86 1.0
87 87 1.0
88 88 1.0
89 89 1.0
90 90 1.0
91 91 1.0
92 92 1.0
93 93 1.0
94 94 1.0
95 95 1.0
96 96 1.0
97 97 1.0
98 98 1.0
99 99 1.0
100 100 1.0
101 101 1.0
102 102 1.0
103 103 1.0
104 104 1.0
105 105 1.0
106 106 1.0
107 107 1.0
108 108 1.0
109 109 1.0
110 110 1.0
111 111 1.0
112 112 1.0
113 113 1.0
114 114 1.0
115 115 1.0
116 116 1.0
117 117 1.0
118 118 1.0
119 119 1.0
120 120 1.0
121 121 1.0
122 122 1.0
123 123 1.0
124 124 1.0
125 125 1.0
126 126 1.0
127 127 1.0
128 128 1.0
129 129 1.0
130 130 1.0
131 131 1.0
132 132 1.0
133 133 1.0
134 134 1.0
135 135 1.0
136 136 1.0
137 137 1.0
138 138 1.0
139 139 1.0
140 140 1.0
141 141 1.0
142 142 1.0
143 143 1.0
144 144 1.0
145 145 1.0
146 146 1.0
147 147 1.0
148 148 1.0
149 149 1.0
150 150 1.0
151 151 1.0
152 152 1.0
153 153 1.0
154 154 1.0
155 155 1.0
156 156 1.0
157 157 1.0
158 158 1.0
159 159 1.0
160 160 1.0
161 161 1.0
162 162 1.0
163 163 1.0
164 164 1.0
165 165 1.0
166 166 1.0
167 167 1.0
168 168 1.0
169 169 1.0
170 170 1.0
171 171 1.0
172 172 1.0
173 173 1.0
174 174 1.0
175 175 1.0
176 176 1.0
177 177 1.0
178 178 1.0
179 179 1.0
180 180 1.0
181 181 1.0
182 182 1.0
183 183 1.0
184 184 1.0
185 185 1.0
186 186 1.0
187 187 1.0
188 188 1.0
189 189 1.0
190 190 1.0
191 191 1.0
192 192 1.0
193 193 1.0
194 194 1.0
195 195 1.0
196 196 1.0
197 197 1.0
198 198 1.0
199 199 1.0
200 200 1.0
201 201 1.0
202 202 1.0
203 203 1.0
204 204 1.0
205 205 1.0
206 206 1.0
207 207 1.0
208 208 1.0
209 209 1.0
210 210 1.0
211 211 1.0
212 212 1.0
213 213 1.0
214 214 1.0
215 215 1.0
216 216 1.0
217 217 1.0
218 218 1.0
219 219 1.0
220 220 1.0
221 221 1.0
222 222 1.0
223 223 1.0
224 224 1.0
225 225 1.0
226 226 1.0
227 227 1.0
228 228 1.0
229 229 1.0
230 230 1.0
231 231 1.0
232 232 1.0
233 233 1.0
234 234 1.0
235 235 1.0
236 236 1.0
237 237 1.0
238 238 1.0
239 239 1.0
240 240 1.0
241 241 1.0
242 242 1.0
243 243 1.0
244 244 1.0
245 245 1.0
246 246 1.0
247 247 1.0
248 248 1.0
249 249 1.0
250 250 1.0
251 251 1.0
252 252 1.0
253 253 1.0
254 254 1.0
255 255 1.0
256 256 1.0
257 257 1.0
258 258 1.0
259 259 1.0
260 260 1.0
261 261 1.0
262 262 1.0
263 263 1.0
264 264 1.0
265 265 1.0
266 266 1.0
267 267 1.0
268 268 1.0
269 269 1.0
270 270 1.0
271 271 1.0
272 272 1.0
273 273 1.0
274 274 1.0
275 275 1.0
276 276 1.0
277 277 1.0
278 278 1.0
279 279 1.0
280 280 1.0
281 281 1.0
282 282 1.0
283 283 1.0
284 284 1.0
285 285 1.0
286 286 1.0
287 287 1.0
288 288 1.0
289 289 1.0
290 290 1.0
291 291 1.0
292 292 1.0
293 293 1.0
294 294 1.0
295 295 1.0
296 296 1.0
297 297 1.0
298 298 1.0
299 299 1.0
300 300 1.0
301 301 1.0
302 302 1.0
303 303 1.0
304 304 1.0
305 305 1.0
306 306 1.0
307 307 1.0
308 308 1.0
309 309 1.0
310 310 1.0
311 311 1.0
312 312 1.0
313 313 1.0
314 314 1.0
315 315 1.0
316 316 1.0
317 317 1.0
318 318 1.0
319 319 1.0
320 320 1.0
321 321 1.0
322 322 1.0
323 323 1.0
324 324 1.0
325 325 1.0
326 326 1.0
327 327 1.0
328 328 1.0
329 329 1.0
330 330 1.0
331 331 1.0
332 332 1.0
333 333 1.0
334 334 1.0
335 335 1.0
336 336 1.0
337 337 1.0
338 338 1.0
339 339 1.0
340 340 1.0
341 341 1.0
342 342 1.0
343 343 1.0
344 344 1.0
345 345 1.0
346 346 1.0
347 347 1.0
348 348 1.0
349 349 1.0
350 350 1.0
351 351 1.0
352 352 1.0
353 353 1.0
354 354 1.0
355 355 1.0
356 356 1.0
357 357 1.0
358 358 1.0
359 359 1.0
360 360 1.0
361 361 1.0
362 362 1.0
363 363 1.0
364 364 1.0
365 365 1.0
366 366 1.0
367 367 1.0
368 368 1.0
369 369 1.0
370 370 1.0
371 371 1.0
372 372 1.0
373 373 1.0
374 374 1.0
375 375 1.0
376 376 1.0
377 377 1.0
378 378 1.0
379 379 1.0
380 380 1.0
381 381 1.0
382 382 1.0
383 383 1.0
384 384 1.0
385 385 1.0
386 386 1.0
387 387 1.0
388 388 1.0
389 389 1.0
390 390 1.0
391 391 1.0
392 392 1.0
393 393 1.0
394 394 1.0
395 395 1.0
396 396 1.0
397 397 1.0
398 398 1.0
399 399 1.0
400 400 1.0
401 401 1.0
402 402 1.0
403 403 1.0
404 404 1.0
405 405 1.0
406 406 1.0
407 407 1.0
408 408 1.0
409 409 1.0
410 410 1.0
411 411 1.0
412 412 1.0
413 413 1.0
414 414 1.0
415 415 1.0
416 416 1.0
417 417 1.0
418 418 1.0
419 419 1.0
420 420 1.0
421 421 1.0
422 422 1.0
423 423 1.0
424 424 1.0
425 425 1.0
426 426 1.0
427 427 1.0
428 428 1.0
429 429 1.0
430 430 1.0
431 431 1.0
432 432 1.0
433 433 1.0
434 434 1.0
435 435 1.0
436 436 1.0
437 437 1.0
438 438 1.0
439 439 1.0
440 440 1.0
441 441 1.0
442 442 1.0
443 443 1.0
444 444 1.0
445 445 1.0
446 446 1.0
447 447 1.0
448 448 1.0
449 449 1.0
450 450 1.0
451 451 1.0
452 452 1.0
453 453 1.0
454 454 1.0
455 455 1.0
456 456 1.0
457 457 1.0
458 458 1.0
459 459 1.0
460 460 1.0
461 461 1.0
462 462 1.0
463 463 1.0
464 464 1.0
465 465 1.0
466 466 1.0
467 467 1.0
468 468 1.0
469 469 1.0
470 470 1.0
471 471 1.0
472 472 1.0
473 473 1.0
474 474 1.0
475 475 1.0
476 476 1.0
477 477 1.0
478 478 1.0
479 479 1.0
480 480 1.0
481 481 1.0
482 482 1.0
483 483 1.0
484 484 1.0
485 485 1.0
486 486 1.0
487 487 1.0
488 488 1.0
489 489 1.0
490 490 1.0
491 491 1.0
492 492 1.0
493 493 1.0
494 494 1.0
495 495 1.0
496 496 1.0
497 497 1.0
498 498 1.0
499 499 1.0
500 500 1.0
501 501 1.0
502 502 1.0
503 503 1.0
504 504 1.0
505 505 1.0
506 506 1.0
507 507 1.0
508 508 1.0
509 509 1.0
510 510 1.0
511 511 1.0
512 512 1.0
513 513 1.0
514 514 1.0
515 515 1.0
516 516 1.0
517 517 1.0
518 518 1.0
519 519 1.0
520 520 1.0
521 521 1.0
522 522 1.0
523 523 1.0
524 524 1.0
525 525 1.0
526 526 1.0
527 527 1.0
528 528 1.0
529 529 1.0
530 530 1.0
531 531 1.0
532 532 1.0
533 533 1.0
534 534 1.0
535 535 1.0
536 536 1.0
537 537 1.0
538 538 1.0
539 539 1.0
540 540 1.0
541 541 1.0
542 542 1.0
543 543 1.0
544 544 1.0
545 545 1.0
546 546 1.0
547 547 1.0
548 548 1.0
549 549 1.0
550 550 1.0
551 551 1.0
552 552 1.0
553 553 1.0
554 554 1.0
555 555 1.0
556 556 1.0
557 557 1.0
558 558 1.0
559 559 1.0
560 560 1.0
561 561 1.0
562 562 1.0
563 563 1.0
564 564 1.0
565 565 1.0
566 566 1.0
567 567 1.0
568 568 1.0
569 569 1.0
570 570 1.0
571 571 1.0
572 572 1.0
573 573 1.0
574 574 1.0
575 575 1.0
576 576 1.0
577 577 1.0
578 578 1.0
579 579 1.0
580 580 1.0
581 581 1.0
582 582 1.0
583 583 1.0
584 584 1.0
585 585 1.0
586 586 1.0
587 587 1.0
588 588 1.0
589 589 1.0
590 590 1.0
591 591 1.0
592 592 1.0
593 593 1.0
594 594 1.0
595 595 1.0
596 596 1.0
597 597 1.0
598 598 1.0
599 599 1.0
600 600 1.0
601 601 1.0
602 602 1.0
603 603 1.0
604 604 1.0
605 605 1.0
606 606 1.0
607 607 1.0
608 608 1.0
609 609 1.0
610 610 1.0
611 611 1.0
612 612 1.0
613 613 1.0
614 614 1.0
615 615 1.0
616 616 1.0
617 617 1.0
618 618 1.0
619 619 1.0
620 620 1.0
621 621 1.0
622 622 1.0
623 623 1.0
624 624 1.0
625 625 1.0
626 1 1.0
627 2 1.0
628 3 1.0
629 4 1.0
630 5 1.0
631 6 1.0
632 7 1.0
633 8 1.0
634 9 1.0
635 10 1.0
636 11 1.0
637 12 1.0
638 13 1.0
639 14 1.0
640 15 1.0
641 16 1.0
642 17 1.0
643 18 1.0
644 19 1.0
645 20 1.0
646 21 1.0
647 22 1.0
648 23 1.0
649 24 1.0
650 25 1.0
661 36 1.0
672 47 1.0
673 48 1.0
674 49 1.0
685 60 1.0
686 61 1.0
687 62 1.0
688 63 1.0
689 64 1.0
700 75 1.0
701 76 1.0
702 77 1.0
703 78 1.0
704 79 1.0
705 80 1.0
706 81 1.0
717 92 1.0
718 93 1.0
719 94 1.0
720 95 1.0
721 96 1.0
722 97 1.0
723 98 1.0
724 99 1.0
725 100 1.0
746 121 1.0
767 142 1.0
768 143 1.0
769 144 1.0
790 165 1.0
791 166 1.0
792 167 1.0
793 168 1.0
794 169 1.0
815 190 1.0
816 191 1.0
817 192 1.0
818 193 1.0
819 194 1.0
820 195 1.0
821 196 1.0
842 217 1.0
843 218 1.0
844 219 1.0
845 220 1.0
846 221 1.0
847 222 1.0
848 223 1.0
849 224 1.0
850 225 1.0
881 256 1.0
912 287 1.0
913 288 1.0
914 289 1.0
945 320 1.0
946 321 1.0
947 322 1.0
948 323 1.0
949 324 1.0
980 355 1.0
981 356 1.0
982 357 1.0
983 358 1.0
984 359 1.0
985 360 1.0
986 361 1.0
1017 392 1.0
1018 393 1.0
1019 394 1.0
1020 395 1.0
1021 396 1.0
1022 397 1.0
1023 398 1.0
1024 399 1.0
1025 400 1.0
1066 441 1.0
1107 482 1.0
1108 483 1.0
1109 484 1.0
1150 525 1.0
1151 526 1.0
1152 527 1.0
1153 528 1.0
1154 529 1.0
1195 570 1.0
1196 571 1.0
1197 572 1.0
1198 573 1.0
1199 574 1.0
1200 575 1.0
1201 576 1.0
1242 617 1.0
1243 618 1.0
1244 619 1.0
1245 620 1.0
1246 621 1.0
1247 622 1.0
1248 623 1.0
1249 624 1.0
1250 625 1.0
1251 1 1.0
1252 2 1.0
1253 3 1.0
1254 4 1.0
1255 5 1.0
1256 6 1.0
1257 7 1.0
1258 8 1.0
1259 9 1.0
1260 10 1.0
1261 11 1.0
1262 12 1.0
1263 13 1.0
1264 14 1.0
1265 15 1.0
1266 16 1.0
1267 17 1.0
1268 18 1.0
1269 19 1.0
1270 20 1.0
1271 21 1.0
1272 22 1.0
1273 23 1.0
1274 24 1.0
1275 25 1.0
1276 26 1.0
1277 27 1.0
1278 28 1.0
1279 29 1.0
1280 30 1.0
1281 31 1.0
1282 32 1.0
1283 33 1.0
1284 34 1.0
1285 35 1.0
1286 36 1.0
1287 37 1.0
1288 38 1.0
1289 39 1.0
1290 40 1.0
1291 41 1.0
1292 42 1.0
1293 43 1.0
1294 44 1.0
1295 45 1.0
1296 46 1.0
1297 47 1.0
1298 48 1.0
1299 49 1.0
1300 50 1.0
1301 51 1.0
1302 52 1.0
1303 53 1.0
1304 54 1.0
1305 55 1.0
1306 56 1.0
1307 57 1.0
1308 58 1.0
1309 59 1.0
1310 60 1.0
1311 61 1.0
1312 62 1.0
1313 63 1.0
1314 64 1.0
1315 65 1.0
1316 66 1.0
1317 67 1.0
1318 68 1.0
1319 69 1.0
1320 70 1.0
1321 71 1.0
1322 72 1.0
1323 73 1.0
1324 74 1.0
1325 75 1.0
1326 76 1.0
1327 77 1.0
1328 78 1.0
1329 79 1.0
1330 80 1.0
1331 81 1.0
1332 82 1.0
1333 83 1.0
1334 84 1.0
1335 85 1.0
1336 86 1.0
1337 87 1.0
1338 88 1.0
1339 89 1.0
1340 90 1.0
1341 91 1.0
1342 92 1.0
1343 93 1.0
1344 94 1.0
1345 95 1.0
1346 96 1.0
1347 97 1.0
1348 98 1.0
1349 99 1.0
1350 100 1.0
1351 101 1.0
1352 102 1.0
1353 103 1.0
1354 104 1.0
1355 105 1.0
1356 106 1.0
1357 107 1.0
1358 108 1.0
1359 109 1.0
1360 110 1.0
1361 111 1.0
1362 112 1.0
1363 113 1.0
1364 114 1.0
1365 115 1.0
1366 116 1.0
1367 117 1.0
1368 118 1.0
1369 119 1.0
1370 120 1.0
1371 121 1.0
1372 122 1.0
1373 123 1.0
1374 124 1.0
1375 125 1.0
1376 126 1.0
1377 127 1.0
1378 128 1.0
1379 129 1.0
1380 130 1.0
1381 131 1.0
1382 132 1.0
1383 133 1.0
1384 134 1.0
1385 135 1.0
1386 136 1.0
1387 137 1.0
1388 138 1.0
1389 139 1.0
1390 140 1.0
1391 141 1.0
1392 142 1.0
1393 143 1.0
1394 144 1.0
1395 145 1.0
1396 146 1.0
1397 147 1.0
1398 148 1.0
1399 149 1.0
1400 150 1.0
1401 151 1.0
1402 152 1.0
1403 153 1.0
1404 154 1.0
1405 155 1.0
1406 156 1.0
1407 157 1.0
1408 158 1.0
1409 159 1.0
1410 160 1.0
1411 161 1.0
1412 162 1.0
1413 163 1.0
1414 164 1.0
1415 165 1.0
1416 166 1.0
1417 167 1.0
1418 168 1.0
1419 169 1.0
1420 170 1.0
1421 171 1.0
1422 172 1.0
1423 173 1.0
1424 174 1.0
1425 175 1.0
1426 176 1.0
1427 177 1.0
1428 178 1.0
1429 179 1.0
1430 180 1.0
1431 181 1.0
1432 182 1.0
1433 183 1.0
1434 184 1.0
1435 185 1.0
1436 186 1.0
1437 187 1.0
1438 188 1.0
1439 189 1.0
1440 190 1.0
1441 191 1.0
1442 192 1.0
1443 193 1.0
1444 194 1.0
1445 195 1.0
1446 196 1.0
1447 197 1.0
1448 198 1.0
1449 199 1.0
1450 200 1.0
1451 201 1.0
1452 202 1.0
1453 203 1.0
1454 204 1.0
1455 205 1.0
1456 206 1.0
1457 207 1.0
1458 208 1.0
1459 209 1.0
1460 210 1.0
1461 211 1.0
1462 212 1.0
1463 213 1.0
1464 214 1.0
1465 215 1.0
1466 216 1.0
1467 217 1.0
1468 218 1.0
1469 219 1.0
1470 220 1.0
1471 221 1.0
1472 222 1.0
1473 223 1.0
1474 224 1.0
1475 225 1.0
1476 226 1.0
1477 227 1.0
1478 228 1.0
1479 229 1.0
1480 230 1.0
1481 231 1.0
1482 232 1.0
1483 233 1.0
1484 234 1.0
1485 235 1.0
1486 236 1.0
1487 237 1.0
1488 238 1.0
1489 239 1.0
1490 240 1.0
1491 241 1.0
1492 242 1.0
1493 243 1.0
1494 244 1.0
1495 245 1.0
1496 246 1.0
1497 247 1.0
1498 248 1.0
1499 249 1.0
1500 250 1.0
1501 251 1.0
1502 252 1.0
1503 253 1.0
1504 254 1.0
1505 255 1.0
1506 256 1.0
1507 257 1.0
1508 258 1.0
1509 259 1.0
1510 260 1.0
1511 261 1.0
1512 262 1.0
1513 263 1.0
1514 264 1.0
1515 265 1.0
1516 266 1.0
1517 267 1.0
1518 268 1.0
1519 269 1.0
1520 270 1.0
1521 271 1.0
1522 272 1.0
1523 273 1.0
1524 274 1.0
1525 275 1.0
1526 276 1.0
1527 277 1.0
1528 278 1.0
1529 279 1.0
1530 280 1.0
1531 281 1.0
1532 282 1.0
1533 283 1.0
1534 284 1.0
1535 285 1.0
1536 286 1.0
1537 287 1.0
1538 288 1.0
1539 289 1.0
1540 290 1.0
1541 291 1.0
1542 292 1.0
1543 293 1.0
1544 294 1.0
1545 295 1.0
1546 296 1.0
1547 297 1.0
1548 298 1.0
1549 299 1.0
1550 300 1.0
1551 301 1.0
1552 302 1.0
1553 303 1.0
1554 304 1.0
1555 305 1.0
1556 306 1.0
1557 307 1.0
1558 308 1.0
1559 309 1.0
1560 310 1.0
1561 311 1.0
1562 312 1.0
1563 313 1.0
1564 314 1.0
1565 315 1.0
1566 316 1.0
1567 317 1.0
1568 318 1.0
1569 319 1.0
1570 320 1.0
1571 321 1.0
1572 322 1.0
1573 323 1.0
1574 324 1.0
1575 325 1.0
1576 326 1.0
1577 327 1.0
1578 328 1.0
1579 329 1.0
1580 330 1.0
1581 331 1.0
1582 332 1.0
1583 333 1.0
1584 334 1.0
1585 335 1.0
1586 336 1.0
1587 337 1.0
1588 338 1.0
1589 339 1.0
1590 340 1.0
1591 341 1.0
1592 342 1.0
1593 343 1.0
1594 344 1.0
1595 345 1.0
1596 346 1.0
1597 347 1.0
1598 348 1.0
1599 349 1.0
1600 350 1.0
1601 351 1.0
1602 352 1.0
1603 353 1.0
1604 354 1.0
1605 355 1.0
1606 356 1.0
1607 357 1.0
1608 358 1.0
1609 359 1.0
1610 360 1.0
1611 361 1.0
1612 362 1.0
1613 363 1.0
1614 364 1.0
1615 365 1.0
1616 366 1.0
1617 367 1.0
1618 368 1.0
1619 369 1.0
1620 370 1.0
1621 371 1.0
1622 372 1.0
1623 373 1.0
1624 374 1.0
1625 375 1.0
1626 376 1.0
1627 377 1.0
1628 378 1.0
1629 379 1.0
1630 380 1.0
1631 381 1.0
1632 382 1.0
1633 383 1.0
1634 384 1.0
1635 385 1.0
1636 386 1.0
1637 387 1.0
1638 388 1.0
1639 389 1.0
1640 390 1.0
1641 391 1.0
1642 392 1.0
1643 393 1.0
1644 394 1.0
1645 395 1.0
1646 396 1.0
1647 397 1.0
1648 398 1.0
1649 399 1.0
1650 400 1.0
1651 401 1.0
1652 402 1.0
1653 403 1.0
1654 404 1.0
1655 405 1.0
1656 406 1.0
1657 407 1.0
1658 408 1.0
1659 409 1.0
1660 410 1.0
1661 411 1.0
1662 412 1.0
1663 413 1.0
1664 414 1.0
1665 415 1.0
1666 416 1.0
1667 417 1.0
1668 418 1.0
1669 419 1.0
1670 420 1.0
1671 421 1.0
1672 422 1.0
1673 423 1.0
1674 424 1.0
1675 425 1.0
1676 426 1.0
1677 427 1.0
1678 428 1.0
1679 429 1.0
1680 430 1.0
1681 431 1.0
1682 432 1.0
1683 433 1.0
1684 434 1.0
1685 435 1.0
1686 436 1.0
1687 437 1.0
1688 438 1.0
1689 439 1.0
1690 440 1.0
1691 441 1.0
1692 442 1.0
1693 443 1.0
1694 444 1.0
1695 445 1.0
1696 446 1.0
1697 447 1.0
1698 448 1.0
1699 449 1.0
1700 450 1.0
1701 451 1.0
1702 452 1.0
1703 453 1.0
1704 454 1.0
1705 455 1.0
1706 456 1.0
1707 457 1.0
1708 458 1.0
1709 459 1.0
1710 460 1.0
1711 461 1.0
1712 462 1.0
1713 463 1.0
1714 464 1.0
1715 465 1.0
1716 466 1.0
1717 467 1.0
1718 468 1.0
1719 469 1.0
1720 470 1.0
1721 471 1.0
1722 472 1.0
1723 473 1.0
1724 474 1.0
1725 475 1.0
1726 476 1.0
1727 477 1.0
1728 478 1.0
1729 479 1.0
1730 480 1.0
1731 481 1.0
1732 482 1.0
1733 483 1.0
1734 484 1.0
1735 485 1.0
1736 486 1.0
1737 487 1.0
1738 488 1.0
1739 489 1.0
1740 490 1.0
1741 491 1.0
1742 492 1.0
1743 493 1.0
1744 494 1.0
1745 495 1.0
1746 496 1.0
1747 497 1.0
1748 498 1.0
1749 499 1.0
1750 500 1.0
1751 501 1.0
1752 502 1.0
1753 503 1.0
1754 504 1.0
1755 505 1.0
1756 506 1.0
1757 507 1.0
1758 508 1.0
1759 509 1.0
1760 510 1.0
1761 511 1.0
1762 512 1.0
1763 513 1.0
1764 514 1.0
1765 515 1.0
1766 516 1.0
1767 517 1.0
1768 518 1.0
1769 519 1.0
1770 520 1.0
1771 521 1.0
1772 522 1.0
1773 523 1.0
1774 524 1.0
1775 525 1.0
1776 526 1.0
1777 527 1.0
1778 528 1.0
1779 529 1.0
1780 530 1.0
1781 531 1.0
1782 532 1.0
1783 533 1.0
1784 534 1.0
1785 535 1.0
1786 536 1.0
1787 537 1.0
1788 538 1.0
1789 539 1.0
1790 540 1.0
1791 541 1.0
1792 542 1.0
1793 543 1.0
1794 544 1.0
1795 545 1.0
1796 546 1.0
1797 547 1.0
1798 548 1.0
1799 549 1.0
1800 550 1.0
1801 551 1.0
1802 552 1.0
1803 553 1.0
1804 554 1.0
1805 555 1.0
1806 556 1.0
1807 557 1.0
1808 558 1.0
1809 559 1.0
1810 560 1.0
1811 561 1.0
1812 562 1.0
1813 563 1.0
1814 564 1.0
1815 565 1.0
1816 566 1.0
1817 567 1.0
1818 568 1.0
1819 569 1.0
1820 570 1.0
1821 571 1.0
1822 572 1.0
1823 573 1.0
1824 574 1.0
1825 575 1.0
1826 576 1.0
1827 577 1.0
1828 578 1.0
1829 579 1.0
1830 580 1.0
1831 581 1.0
1832 582 1.0
1833 583 1.0
1834 584 1.0
1835 585 1.0
1836 586 1.0
1837 587 1.0
1838 588 1.0
1839 589 1.0
1840 590 1.0
1841 591 1.0
1842 592 1.0
1843 593 1.0
1844 594 1.0
1845 595 1.0
1846 596 1.0
1847 597 1.0
1848 598 1.0
1849 599 1.0
1850 600 1.0
1851 601 1.0
1852 602 1.0
1853 603 1.0
1854 604 1.0
1855 605 1.0
1856 606 1.0
1857 607 1.0
1858 608 1.0
1859 609 1.0
1860 610 1.0
1861 611 1.0
1862 612 1.0
1863 613 1.0
1864 614 1.0
1865 615 1.0
1866 616 1.0
1867 617 1.0
1868 618 1.0
1869 619 1.0
1870 620 1.0
1871 621 1.0
1872 622 1.0
1873 623 1.0
1874 624 1.0
1875 625 1.0
1876 1 1.0
1876 49 1.0
1876 169 1.0
1876 361 1.0
1876 625 1.0
1877 1 0.19999999999999996
1877 4 0.19999999999999996
1877 9 0.2
1877 16 0.2
1877 25 0.2
1877 34 0.28284271247461906
1877 36 0.19999999999999996
1877 37 0.28284271247461895
1877 49 0.19999999999999998
1877 52 0.282842712474619
1877 64 0.19999999999999998
1877 69 0.28284271247461906
1877 81 0.2
1877 88 0.28284271247461906
1877 100 0.20000000000000004
1877 107 0.28284271247461906
1877 119 0.28284271247461906
1877 121 0.2
1877 130 0.28284271247461906
1877 132 0.282842712474619
1877 144 0.19999999999999998
1877 145 0.282842712474619
1877 157 0.282842712474619
1877 169 0.20000000000000004
1877 172 0.28284271247461906
1877 184 0.28284271247461906
1877 196 0.2
1877 201 0.28284271247461906
1877 213 0.28284271247461906
1877 225 0.20000000000000004
1877 230 0.28284271247461906
1877 242 0.28284271247461906
1877 254 0.28284271247461906
1877 256 0.2
1877 263 0.28284271247461906
1877 275 0.28284271247461906
1877 277 0.28284271247461906
1877 289 0.2
1877 298 0.28284271247461906
1877 300 0.28284271247461906
1877 312 0.28284271247461906
1877 324 0.2
1877 325 0.28284271247461906
1877 337 0.28284271247461906
1877 349 0.28284271247461906
1877 361 0.20000000000000004
1877 364 0.28284271247461906
1877 376 0.28284271247461906
1877 388 0.2828427124746191
1877 400 0.20000000000000007
1877 403 0.28284271247461906
1877 415 0.28284271247461906
1877 427 0.28284271247461906
1877 439 0.28284271247461906
1877 441 0.2
1877 446 0.28284271247461906
1877 458 0.28284271247461906
1877 470 0.28284271247461906
1877 472 0.28284271247461906
1877 484 0.20000000000000004
1877 491 0.28284271247461906
1877 503 0.28284271247461906
1877 505 0.28284271247461906
1877 517 0.28284271247461906
1877 529 0.20000000000000004
1877 538 0.28284271247461906
1877 540 0.28284271247461906
1877 552 0.28284271247461906
1877 564 0.2828427124746191
1877 576 0.20000000000000007
1877 577 0.28284271247461906
1877 589 0.28284271247461906
1877 601 0.2828427124746191
1877 613 0.2828427124746191
1877 625 0.20000000000000007
1878 1 1.0
1878 4 1.0
1878 9 1.0
1878 16 1.0
1878 25 1.0
1878 36 1.0
1878 49 1.0
1878 64 1.0
1878 81 1.0
1878 100 1.0
1878 121 1.0
1878 144 1.0
1878 169 1.0
1878 196 1.0
1878 225 1.0
1878 256 1.0
1878 289 1.0
1878 324 1.0
1878 361 1.0
1878 400 1.0
1878 441 1.0
1878 484 1.0
1878 529 1.0
1878 576 1.0
1878 625 1.0

BCOORD
3
1876 0.96
1877 0.96
1878 1.0
